Maximize
831 x0 + 721 x1 + 565 x2 + 875 x3 + 486 x4 + 871 x5 + 813 x6 + 487 x7 + 585 x8 + 569 x9 


subject to
608 x0 + 632 x1 + 60 x2 + 360 x3 + 338 x4 + 978 x5 + 436 x6 + 60 x7 + 698 x8 + 34 x9 <= 2102
764 x0 + 568 x1 + 886 x2 + 900 x3 + 23 x4 + 934 x5 + 492 x6 + 719 x7 + 221 x8 + 703 x9 <= 3105
997 x0 + 816 x1 + 82 x2 + 711 x3 + 754 x4 + 990 x5 + 991 x6 + 308 x7 + 754 x8 + 274 x9 <= 3338
936 x0 + 461 x1 + 541 x2 + 955 x3 + 274 x4 + 657 x5 + 608 x6 + 820 x7 + 832 x8 + 234 x9 <= 3159
101 x0 + 321 x1 + 308 x2 + 662 x3 + 714 x4 + 548 x5 + 561 x6 + 397 x7 + 142 x8 + 973 x9 <= 2363

Binary
 x0 x1 x2 x3 x4 x5 x6 x7 x8 x9
End